1438906
1 24 54636
24 17 276644
17 10 52694
10 23 54017
23 12 132796
12 8 61690
8 27 98591
27 7 7370
7 3 5029
3 21 168124
21 15 19591
15 6 10550
6 30 7944
30 2 6204
2 9 11091
9 18 9870
18 25 7368
25 13 1644
13 5 6994
5 4 10978
4 28 9482
28 29 52270
29 16 55904
16 14 22658
14 26 12452
26 11 13666
11 22 10310
22 19 8375
19 20 59143
20 1 190821
